72
28
61
7
86
40
21
57
47
68
14
41
0
34
95
22
77
20
98
80
11
44
78
32
8
85
29
48
30
65
55
12
75
42
26
79
99
3
73
97
13
45
90
16
89
74
1
76
18
93
83
10
27
60
39
66
53
69
91
71
56
59
62
54
38
52
24
81
67
23
2
49
46
88
36
15
63
43
19
94
5
4
31
70
96
50
51
17
6
37
84
33
9
64
87
58
35
92
25
82
72
